100
125
99
97
96
96
96
93
92
92
90
88
88
88
87
86
86
85
84
83
83
83
82
81
80
78
78
77
77
77
76
76
74
74
73
73
72
72
71
70
69
68
68
65
65
64
63
62
62
62
62
61
61
61
60
60
60
59
58
58
56
55
55
55
54
53
53
53
53
52
52
51
51
49
49
48
48
47
45
43
42
41
41
40
39
38
37
36
36
35
34
32
32
31
30
29
28
27
27
27
26
26
